SAT
-37 8 -48 54 30 -61 -79 -14 -22 23 -65 -20 -85 -77 100 70 -25 44 2 57 71 -95 94 -35 -63 68 -80 33 -52 7 -96 -13 24 51 58 3 18 -28 27 86 -29 -15 -41 -49 6 -42 12 -36 -98 -34 21 56 43 32 -74 84 82 -45 4 26 89 -60 1 -81 -40 46 -91 93 -55 66 19 -5 -69 99 17 67 50 -75 -11 38 -10 47 39 -53 -9 31 87 -88 90 97 -64 78 92 83 -59 73 -72 62 -76 16 0
